899118
876808
167104
740405
814726
262087
111878
599820
5328
837355
363055
986009
580126
491689
242351
803439
80692
645411
479774
425530
204463
738218
906405
104268
582338
978707
117202
598086
261275
977012
862220
169887
32548
656572
471456
820564
930597
281068
186361
563628
569094
767094
85742
829287
715826
902064
881142
762371
147864
253045
680439
897706
803979
306329
948539
124667
430793
646726
601923
798131
522009
317175
263286
42552
92109
691729
612274
226562
499879
644825
342148
180774
96792
999318
900658
20672
237284
762692
15861
710141
132001
416050
983044
262403
143198
183353
770315
772093
701727
780121
893051
283590
294023
299633
552634
251953
792015
375323
30651
348467
